nvertices = 8;
owners = [0,1,0,1,1,0,1,0];
priors = [4,1,6,0,8,3,2,5];
nedges = 14;
sources = [0,0,1,1,2,2,3,3,4,4,5,6,6,7];
targets = [3,1,0,2,4,1,5,1,7,6,6,7,3,4];
weigths = [0,0,0,0,0,0,0,0,0,0,0,0,0,0];

